(set-info :status unsat)
(declare-datatypes ((T 0)) ((
  (f0)
  (f1 (proj0f1 T) (proj1f1 T))
  (f2 (proj0f2 T) (proj1f2 T)))))
(assert (exists ((y7405 T) (y7404 T) (y7407 T) (y7406 T) (y7401 T) (y7403 T) (y7402 T) (y7409 T) (y7408 T)) 
  (or (= y7401 (f2 y7401 PLACEHOLDER)) 
    (and (= y7402 (f2 y7403 (f1 (f2 PLACEHOLDER PLACEHOLDER) (f1 PLACEHOLDER PLACEHOLDER)))) (= y7403 (f2 y7404 PLACEHOLDER)) (= y7404 (f1 y7402 PLACEHOLDER))) 
    (and (= y7405 (f2 y7406 (f1 (f1 PLACEHOLDER PLACEHOLDER) (f2 PLACEHOLDER PLACEHOLDER)))) (= y7406 (f1 y7407 (f2 (f2 (f1 PLACEHOLDER PLACEHOLDER) (f1 PLACEHOLDER PLACEHOLDER)) (f2 PLACEHOLDER (f1 PLACEHOLDER PLACEHOLDER))))) (= y7407 (f1 y7408 (f1 (f2 PLACEHOLDER PLACEHOLDER) (f1 PLACEHOLDER PLACEHOLDER)))) (= y7408 (f2 y7409 (f1 PLACEHOLDER PLACEHOLDER))) (= y7409 (f2 y7405 PLACEHOLDER))))))
(check-sat)
